Data path: /scratch/opt/lxu/CFLG/benchmarks/random_A
Instance: r_15_0.1_14.txt
Result path: /scratch/opt/lxu/CFLG/results/random_A
Solver: Gurobi
Time limit: 3600
Formulation: LEFPV2
Cover: Small
julia --project=. src/main.jl /scratch/opt/lxu/CFLG/benchmarks/random_A r_15_0.1_14.txt /scratch/opt/lxu/CFLG/results/random_A Gurobi 3600 LEFPV2 Small
The latest version of Julia in the `release` channel is 1.11.5+0.x64.linux.gnu. You currently have `1.11.4+0.x64.linux.gnu` installed. Run:

  juliaup update

in your terminal shell to install Julia 1.11.5+0.x64.linux.gnu and update the `release` channel to that version.
/scratch/opt/lxu/CFLG/benchmarks/random_A Gurobi 3600.0 /scratch/opt/lxu/CFLG/results/random_A r_15_0.1_14.txt LEFPV2 Small
/scratch/opt/lxu/CFLG/benchmarks/random_A/r_15_0.1_14.txt

 read graph
data loaded


after absorb:10 15

max_piece:14
problem_graph/original graph: node: 11/15 edge: 10/14 dlt: 0.2154933651833491 break_avg_len: 0.9142142765354206 break_max_len: 2.831717801485875elapsed CPU time: 0.044651 seconds
Set parameter TokenServer to value "solice01.zib.de"
Set parameter Threads to value 1
Set parameter OutputFlag to value 1
Set parameter MIPGap to value 0.0001
Set parameter MIPGapAbs to value 1
Set parameter TimeLimit to value 3599.955349

 more cuts:true
formulation:LEFPV28 2 2
Set parameter PreCrush to value 1

 model loaded

Gurobi Optimizer version 12.0.1 build v12.0.1rc0 (linux64 - "Debian GNU/Linux 12 (bookworm)")

CPU model: Intel(R) Xeon(R) Gold 5122 CPU @ 3.60GHz, instruction set [SSE2|AVX|AVX2|AVX512]
Thread count: 8 physical cores, 16 logical processors, using up to 1 threads

Non-default parameters:
TimeLimit  3599.955349
MIPGapAbs  1
PreCrush  1
Threads  1

Optimize a model with 196 rows, 106 columns and 380 nonzeros
Model fingerprint: 0x6f17913c
Variable types: 41 continuous, 65 integer (49 binary)
Coefficient statistics:
  Matrix range     [2e-01, 3e+00]
  Objective range  [1e+00, 1e+00]
  Bounds range     [2e-01, 3e+00]
  RHS range        [6e-02, 6e+00]
Found heuristic solution: objective 25.0000000
Presolve removed 128 rows and 42 columns
Presolve time: 0.00s
Presolved: 68 rows, 64 columns, 188 nonzeros
Variable types: 31 continuous, 33 integer (28 binary)

Root relaxation: objective 1.930712e+01, 39 iterations, 0.00 seconds (0.00 work units)

    Nodes    |    Current Node    |     Objective Bounds      |     Work
 Expl Unexpl |  Obj  Depth IntInf | Incumbent    BestBd   Gap | It/Node Time

     0     0   19.30712    0   14   25.00000   19.30712  22.8%     -    0s
H    0     0                      24.0000000   19.30712  19.6%     -    0s
H    0     0                      23.0000000   19.30712  16.1%     -    0s
H    0     0                      22.0000000   19.30712  12.2%     -    0s
H    0     0                      21.0000000   19.30712  8.06%     -    0s
     0     0   19.30712    0   14   21.00000   19.30712  8.06%     -    0s

Explored 1 nodes (52 simplex iterations) in 0.01 seconds (0.00 work units)
Thread count was 1 (of 16 available processors)

Solution count 5: 21 22 23 ... 25

Optimal solution found (tolerance 1.00e-04)
Best objective 2.100000000000e+01, best bound 2.100000000000e+01, gap 0.0000%

User-callback calls 647, time in user-callback 0.85 sec

 sepatime0
Stat(MathOptInterface.OPTIMAL, 21.0, 21.0, 0.0, 0.0, 0.044651, 0.005641937255859375, 1, Main.CFLG.LEFPV2, "", #undef)
